c CNF file generated from BLIF2CNF script.
c Original BLIF file was blif/pcler8.blif
p cnf 98 220
1 -5 0
2 -5 0
3 -5 0
5 -1 -2 -3  0
-5 4 0
-4 5  0
6 -9 0
7 -9 0
9 -6 -7  0
-9 8 0
-8 9  0
10 -12 0
7 -12 0
12 -10 -7  0
-12 11 0
-11 12  0
13 -15 0
7 -15 0
15 -13 -7  0
-15 14 0
-14 15  0
16 -18 0
7 -18 0
18 -16 -7  0
-18 17 0
-17 18  0
19 -21 0
7 -21 0
21 -19 -7  0
-21 20 0
-20 21  0
22 -24 0
7 -24 0
24 -22 -7  0
-24 23 0
-23 24  0
25 -27 0
7 -27 0
27 -25 -7  0
-27 26 0
-26 27  0
28 -30 0
7 -30 0
30 -28 -7  0
-30 29 0
-29 30  0
8 -34 0
34 -8  0
-34 33 0
31 -35 0
4 -35 0
35 -31 -4  0
-35 33 0
-32 -36 0
3 -36 0
36 32 -3  0
-36 33 0
-33 34 35 36  0
11 -40 0
40 -11  0
-40 39 0
4 -41 0
37 -41 0
41 -4 -37  0
-41 39 0
3 -42 0
-32 -42 0
38 -42 0
42 -3 32 -38  0
-42 39 0
3 -43 0
32 -43 0
-38 -43 0
43 -3 -32 38  0
-43 39 0
-39 40 41 42 43  0
14 -48 0
48 -14  0
-48 47 0
4 -49 0
44 -49 0
49 -4 -44  0
-49 47 0
3 -50 0
-45 -50 0
46 -50 0
50 -3 45 -46  0
-50 47 0
3 -51 0
45 -51 0
-46 -51 0
51 -3 -45 46  0
-51 47 0
-47 48 49 50 51  0
17 -56 0
56 -17  0
-56 55 0
4 -57 0
52 -57 0
57 -4 -52  0
-57 55 0
3 -58 0
-53 -58 0
54 -58 0
58 -3 53 -54  0
-58 55 0
3 -59 0
53 -59 0
-54 -59 0
59 -3 -53 54  0
-59 55 0
-55 56 57 58 59  0
20 -64 0
64 -20  0
-64 63 0
4 -65 0
60 -65 0
65 -4 -60  0
-65 63 0
3 -66 0
-61 -66 0
62 -66 0
66 -3 61 -62  0
-66 63 0
3 -67 0
61 -67 0
-62 -67 0
67 -3 -61 62  0
-67 63 0
-63 64 65 66 67  0
23 -72 0
72 -23  0
-72 71 0
4 -73 0
68 -73 0
73 -4 -68  0
-73 71 0
3 -74 0
-69 -74 0
70 -74 0
74 -3 69 -70  0
-74 71 0
3 -75 0
69 -75 0
-70 -75 0
75 -3 -69 70  0
-75 71 0
-71 72 73 74 75  0
26 -80 0
80 -26  0
-80 79 0
4 -81 0
76 -81 0
81 -4 -76  0
-81 79 0
3 -82 0
-77 -82 0
78 -82 0
82 -3 77 -78  0
-82 79 0
3 -83 0
77 -83 0
-78 -83 0
83 -3 -77 78  0
-83 79 0
-79 80 81 82 83  0
29 -86 0
86 -29  0
-86 85 0
4 -87 0
84 -87 0
87 -4 -84  0
-87 85 0
3 -88 0
-1 -88 0
2 -88 0
88 -3 1 -2  0
-88 85 0
3 -89 0
1 -89 0
-2 -89 0
89 -3 -1 2  0
-89 85 0
-85 86 87 88 89  0
-7 -92 0
90 -92 0
-91 -92 0
92 7 -90 91  0
-92 3 0
-3 92  0
61 -93 0
62 -93 0
93 -61 -62  0
-93 70 0
-70 93  0
77 -94 0
78 -94 0
94 -77 -78  0
-94 2 0
-2 94  0
45 -95 0
46 -95 0
95 -45 -46  0
-95 54 0
-54 95  0
69 -96 0
70 -96 0
96 -69 -70  0
-96 78 0
-78 96  0
32 -97 0
38 -97 0
97 -32 -38  0
-97 46 0
-46 97  0
53 -98 0
54 -98 0
98 -53 -54  0
-98 62 0
-62 98  0
